Java Code/src/gui/resources/problems/tsp/mnpeano_mod_o8_1452.tsp
NAME: mnpeano mod o8 1452
TYPE: TSP
COMMENT: Created by Farhan Ahammed (farhan.ahammed@it.usyd.edu.au) and Pablo Moscato (Pablo.Moscato@newcastle.edu.au)
DIMENSION: 1452
EDGE_WEIGHT_TYPE: EUC_2D
NODE_COORD_TYPE: TWOD_COORDS
NODE_COORD_SECTION
1 14 539
2 18 535
3 18 527
4 18 517
5 28 508
6 32 508
7 32 516
8 36 520
9 43 520
10 54 520
11 79 527
12 79 518
13 75 514
14 68 514
15 58 514
16 49 504
17 49 500
18 57 500
19 61 496
20 61 489
21 61 478
22 81 445
23 85 445
24 85 453
25 89 457
26 97 457
27 107 457
28 116 467
29 116 471
30 108 471
31 104 475
32 104 483
33 104 493
34 97 519
35 106 519
36 110 515
37 110 507
38 110 497
39 120 488
40 124 488
41 124 496
42 128 500
43 135 500
44 146 500
45 196 517
46 196 509
47 192 504
48 184 504
49 174 504
50 165 494
51 165 490
52 173 490
53 178 486
54 178 479
55 178 468
56 184 443
57 176 443
58 171 447
59 171 454
60 171 465
61 161 474
62 157 474
63 157 465
64 153 461
65 146 461
66 136 461
67 102 441
68 102 437
69 110 437
70 115 433
71 115 426
72 115 415
73 125 406
74 129 406
75 129 415
76 133 419
77 140 419
78 150 419
79 176 425
80 176 417
81 172 412
82 165 412
83 154 412
84 145 403
85 145 399
86 154 399
87 158 395
88 158 387
89 158 377
90 188 318
91 192 318
92 192 327
93 196 331
94 204 331
95 214 331
96 223 341
97 223 345
98 215 345
99 210 349
100 210 356
101 210 367
102 204 392
103 212 392
104 217 388
105 217 381
106 217 371
107 227 362
108 231 362
109 231 370
110 235 374
111 242 374
112 252 374
113 286 394
114 286 398
115 278 398
116 273 402
117 273 410
118 273 420
119 263 429
120 259 429
121 259 421
122 255 417
123 248 417
124 238 417
125 212 410
126 212 419
127 216 423
128 224 423
129 234 423
130 243 433
131 243 437
132 235 437
133 230 441
134 230 448
135 230 459
136 214 509
137 222 509
138 226 505
139 226 497
140 226 487
141 236 478
142 240 478
143 240 486
144 244 491
145 252 491
146 262 491
147 288 497
148 288 489
149 284 484
150 276 484
151 266 484
152 257 474
153 257 470
154 265 470
155 270 466
156 270 459
157 270 449
158 290 415
159 294 415
160 294 423
161 298 428
162 305 428
163 316 428
164 324 438
165 324 442
166 316 442
167 312 446
168 312 453
169 312 463
170 306 489
171 314 489
172 318 485
173 318 478
174 318 467
175 328 458
176 332 458
177 332 467
178 336 471
179 344 471
180 354 471
181 429 497
182 429 489
183 425 485
184 417 485
185 407 485
186 398 475
187 398 471
188 406 471
189 411 467
190 411 460
191 411 449
192 417 424
193 409 424
194 404 428
195 404 435
196 404 445
197 394 454
198 390 454
199 390 446
200 386 442
201 379 442
202 369 442
203 335 422
204 335 418
205 343 418
206 348 414
207 348 406
208 348 396
209 358 387
210 362 387
211 362 395
212 366 399
213 373 399
214 383 399
215 409 406
216 409 397
217 405 393
218 397 393
219 387 393
220 378 383
221 378 379
222 386 379
223 391 375
224 391 368
225 391 357
226 407 307
227 399 307
228 395 311
229 395 319
230 395 329
231 385 338
232 381 338
233 381 330
234 377 325
235 369 325
236 359 325
237 333 319
238 333 327
239 337 332
240 345 332
241 355 332
242 364 342
243 364 346
244 356 346
245 351 350
246 351 357
247 351 367
248 331 401
249 327 401
250 327 393
251 323 388
252 316 388
253 305 388
254 297 378
255 297 374
256 305 374
257 309 370
258 309 363
259 309 353
260 315 327
261 307 327
262 303 331
263 303 338
264 303 349
265 293 358
266 289 358
267 289 349
268 285 345
269 277 345
270 267 345
271 209 315
272 209 311
273 217 311
274 221 307
275 221 299
276 221 289
277 231 280
278 235 280
279 235 288
280 239 293
281 247 293
282 257 293
283 283 299
284 283 291
285 279 286
286 271 286
287 261 286
288 252 276
289 252 272
290 260 272
291 265 268
292 265 261
293 265 250
294 285 217
295 289 217
296 289 225
297 293 230
298 300 230
299 311 230
300 319 239
301 319 243
302 311 243
303 307 247
304 307 255
305 307 265
306 301 291
307 309 291
308 313 287
309 313 279
310 313 269
311 323 260
312 327 260
313 327 268
314 331 273
315 339 273
316 349 273
317 399 289
318 399 281
319 395 277
320 388 277
321 377 277
322 368 267
323 368 263
324 377 263
325 381 259
326 381 251
327 381 241
328 387 215
329 379 215
330 375 219
331 375 227
332 375 237
333 365 246
334 361 246
335 361 238
336 357 233
337 349 233
338 339 233
339 305 213
340 305 209
341 314 209
342 318 205
343 318 198
344 318 187
345 328 179
346 332 179
347 332 187
348 336 191
349 343 191
350 354 191
351 379 197
352 379 189
353 375 185
354 368 185
355 357 185
356 349 175
357 349 171
358 357 171
359 361 167
360 361 159
361 361 149
362 402 66
363 406 66
364 406 74
365 410 79
366 417 79
367 428 79
368 436 89
369 436 93
370 428 93
371 424 97
372 424 104
373 424 115
374 418 140
375 426 140
376 430 136
377 430 129
378 430 118
379 440 109
380 444 109
381 444 118
382 448 122
383 456 122
384 466 122
385 500 142
386 500 146
387 491 146
388 487 150
389 487 157
390 487 168
391 477 177
392 473 177
393 473 168
394 469 164
395 462 164
396 451 164
397 426 158
398 426 166
399 430 171
400 437 171
401 447 171
402 456 180
403 456 184
404 448 184
405 444 188
406 444 196
407 444 206
408 427 257
409 436 257
410 440 253
411 440 245
412 440 235
413 450 226
414 454 226
415 454 234
416 458 238
417 465 238
418 476 238
419 501 245
420 501 236
421 497 232
422 490 232
423 479 232
424 470 222
425 470 218
426 479 218
427 483 214
428 483 207
429 483 196
430 503 163
431 507 163
432 507 171
433 511 175
434 519 175
435 529 175
436 538 185
437 538 189
438 530 189
439 525 193
440 525 201
441 525 211
442 519 237
443 527 237
444 532 233
445 532 225
446 532 215
447 542 206
448 546 206
449 546 214
450 550 218
451 557 218
452 568 218
453 626 249
454 626 253
455 617 253
456 613 257
457 613 264
458 613 275
459 603 284
460 599 284
461 599 275
462 595 271
463 588 271
464 577 271
465 552 265
466 552 273
467 556 277
468 563 277
469 574 277
470 583 287
471 583 291
472 574 291
473 570 295
474 570 303
475 570 313
476 550 347
477 546 347
478 546 338
479 542 334
480 534 334
481 524 334
482 515 324
483 515 320
484 523 320
485 528 316
486 528 309
487 528 298
488 534 273
489 526 273
490 521 277
491 521 284
492 521 295
493 511 303
494 507 303
495 507 295
496 503 291
497 496 291
498 485 291
499 435 274
500 435 283
501 439 287
502 447 287
503 457 287
504 466 297
505 466 301
506 458 301
507 453 305
508 453 312
509 453 323
510 447 348
511 456 348
512 460 344
513 460 337
514 460 326
515 470 318
516 474 318
517 474 326
518 478 330
519 485 330
520 496 330
521 529 350
522 529 354
523 521 354
524 517 358
525 517 366
526 517 376
527 507 385
528 503 385
529 503 377
530 499 372
531 491 372
532 481 372
533 455 366
534 455 375
535 459 379
536 467 379
537 477 379
538 486 389
539 486 393
540 478 393
541 473 397
542 473 404
543 473 415
544 447 489
545 455 489
546 459 485
547 459 478
548 459 468
549 469 459
550 473 459
551 473 467
552 477 471
553 485 471
554 495 471
555 521 478
556 521 469
557 517 465
558 509 465
559 499 465
560 490 455
561 490 451
562 498 451
563 503 447
564 503 440
565 503 429
566 523 396
567 527 396
568 527 404
569 531 408
570 538 408
571 549 408
572 557 418
573 557 422
574 549 422
575 545 426
576 545 434
577 545 444
578 539 470
579 547 470
580 551 466
581 551 458
582 551 448
583 561 439
584 565 439
585 565 447
586 569 451
587 576 451
588 587 451
589 637 468
590 637 460
591 633 455
592 626 455
593 615 455
594 606 445
595 606 441
596 615 441
597 619 437
598 619 430
599 619 419
600 625 394
601 617 394
602 613 398
603 613 405
604 613 416
605 603 425
606 599 425
607 599 416
608 595 412
609 587 412
610 577 412
611 543 392
612 543 388
613 552 388
614 556 384
615 556 377
616 556 366
617 566 357
618 570 357
619 570 366
620 574 370
621 581 370
622 592 370
623 617 376
624 617 368
625 613 363
626 606 363
627 595 363
628 586 354
629 586 350
630 595 350
631 599 346
632 599 338
633 599 328
634 629 269
635 633 269
636 633 278
637 637 282
638 645 282
639 655 282
640 664 292
641 664 296
642 656 296
643 652 300
644 652 307
645 652 318
646 645 343
647 654 343
648 658 339
649 658 332
650 658 322
651 668 313
652 672 313
653 672 321
654 676 325
655 683 325
656 694 325
657 727 345
658 727 349
659 719 349
660 715 353
661 715 361
662 715 371
663 705 380
664 701 380
665 701 372
666 697 367
667 689 367
668 679 367
669 653 361
670 653 370
671 657 374
672 665 374
673 675 374
674 684 384
675 684 388
676 676 388
677 671 392
678 671 399
679 671 410
680 655 460
681 663 460
682 668 456
683 668 448
684 668 438
685 678 429
686 682 429
687 682 437
688 686 442
689 693 442
690 703 442
691 729 448
692 729 440
693 725 435
694 717 435
695 707 435
696 698 425
697 698 421
698 706 421
699 711 417
700 711 410
701 711 400
702 731 366
703 735 366
704 735 374
705 739 379
706 746 379
707 757 379
708 766 389
709 766 393
710 757 393
711 753 397
712 753 404
713 753 414
714 747 440
715 755 440
716 759 436
717 759 428
718 759 418
719 769 409
720 773 409
721 773 417
722 777 422
723 785 422
724 795 422
725 882 467
726 882 471
727 874 471
728 870 475
729 870 482
730 870 493
731 860 501
732 856 501
733 856 493
734 852 489
735 844 489
736 834 489
737 808 483
738 808 491
739 812 495
740 820 495
741 830 495
742 839 505
743 839 509
744 831 509
745 827 513
746 827 521
747 827 531
748 806 564
749 802 564
750 802 556
751 798 552
752 791 552
753 781 552
754 772 542
755 772 538
756 780 538
757 784 534
758 784 527
759 784 516
760 791 491
761 782 491
762 778 495
763 778 502
764 778 512
765 768 521
766 764 521
767 764 513
768 760 509
769 753 509
770 742 509
771 692 492
772 692 501
773 696 505
774 703 505
775 714 505
776 723 515
777 723 519
778 714 519
779 710 523
780 710 530
781 710 541
782 704 566
783 712 566
784 717 562
785 717 555
786 717 544
787 726 535
788 730 535
789 730 544
790 734 548
791 742 548
792 752 548
793 786 568
794 786 572
795 778 572
796 773 576
797 773 584
798 773 594
799 763 603
800 759 603
801 759 595
802 755 590
803 748 590
804 737 590
805 712 584
806 712 592
807 716 597
808 723 597
809 734 597
810 743 607
811 743 611
812 734 611
813 730 615
814 730 622
815 730 632
816 700 691
817 696 691
818 696 682
819 692 678
820 684 678
821 674 678
822 665 668
823 665 664
824 673 664
825 678 660
826 678 653
827 678 642
828 684 617
829 675 617
830 671 621
831 671 628
832 671 639
833 661 647
834 657 647
835 657 639
836 653 635
837 646 635
838 635 635
839 602 615
840 602 611
841 610 611
842 615 607
843 615 599
844 615 589
845 624 580
846 628 580
847 628 588
848 632 593
849 640 593
850 650 593
851 676 599
852 676 591
853 672 586
854 664 586
855 654 586
856 645 576
857 645 572
858 653 572
859 658 568
860 658 561
861 658 550
862 674 500
863 666 500
864 661 504
865 661 512
866 661 522
867 652 531
868 648 531
869 648 523
870 644 518
871 636 518
872 626 518
873 600 512
874 600 521
875 604 525
876 612 525
877 622 525
878 631 535
879 631 539
880 623 539
881 618 543
882 618 550
883 618 561
884 598 594
885 594 594
886 594 586
887 590 581
888 583 581
889 572 581
890 563 572
891 563 568
892 572 568
893 576 564
894 576 556
895 576 546
896 582 520
897 574 520
898 570 524
899 570 532
900 570 542
901 560 551
902 556 551
903 556 543
904 552 538
905 544 538
906 534 538
907 459 512
908 459 520
909 463 524
910 470 524
911 481 524
912 490 534
913 490 538
914 481 538
915 477 542
916 477 550
917 477 560
918 471 586
919 479 586
920 484 582
921 484 574
922 484 564
923 493 555
924 497 555
925 497 563
926 501 567
927 509 567
928 519 567
929 553 588
930 553 592
931 545 592
932 540 596
933 540 603
934 540 613
935 530 622
936 526 622
937 526 614
938 522 610
939 515 610
940 504 610
941 479 603
942 479 612
943 483 616
944 490 616
945 501 616
946 510 626
947 510 630
948 501 630
949 497 634
950 497 641
951 497 652
952 481 702
953 489 702
954 493 698
955 493 691
956 493 680
957 503 671
958 507 671
959 507 680
960 511 684
961 519 684
962 529 684
963 555 690
964 555 682
965 551 678
966 543 678
967 533 678
968 524 668
969 524 664
970 532 664
971 536 660
972 536 652
973 536 642
974 557 608
975 561 608
976 561 617
977 565 621
978 572 621
979 582 621
980 591 631
981 591 635
982 583 635
983 579 639
984 579 646
985 579 657
986 572 682
987 581 682
988 585 678
989 585 671
990 585 660
991 595 651
992 599 651
993 599 660
994 603 664
995 610 664
996 621 664
997 679 694
998 679 698
999 671 698
1000 666 702
1001 666 710
1002 666 720
1003 657 729
1004 653 729
1005 653 721
1006 649 716
1007 641 716
1008 631 716
1009 605 710
1010 605 719
1011 609 723
1012 617 723
1013 627 723
1014 636 733
1015 636 737
1016 628 737
1017 623 741
1018 623 748
1019 623 759
1020 603 792
1021 599 792
1022 599 784
1023 595 780
1024 588 780
1025 577 780
1026 568 770
1027 568 766
1028 577 766
1029 581 762
1030 581 754
1031 581 744
1032 587 718
1033 579 718
1034 575 722
1035 575 730
1036 575 740
1037 565 749
1038 561 749
1039 561 741
1040 557 736
1041 549 736
1042 539 736
1043 489 720
1044 489 728
1045 493 733
1046 500 733
1047 511 733
1048 519 742
1049 519 746
1050 511 746
1051 507 750
1052 507 758
1053 507 768
1054 501 794
1055 509 794
1056 513 790
1057 513 782
1058 513 772
1059 523 763
1060 527 763
1061 527 771
1062 531 776
1063 539 776
1064 549 776
1065 583 796
1066 583 800
1067 574 800
1068 570 804
1069 570 811
1070 570 822
1071 560 831
1072 556 831
1073 556 822
1074 552 818
1075 545 818
1076 534 818
1077 509 812
1078 509 820
1079 513 824
1080 520 824
1081 530 824
1082 539 834
1083 539 838
1084 531 838
1085 527 842
1086 527 850
1087 527 860
1088 486 943
1089 482 943
1090 482 935
1091 478 930
1092 471 930
1093 460 930
1094 451 920
1095 451 916
1096 460 916
1097 464 912
1098 464 905
1099 464 895
1100 470 869
1101 462 869
1102 458 873
1103 458 881
1104 458 891
1105 448 900
1106 444 900
1107 444 892
1108 440 887
1109 432 887
1110 422 887
1111 388 867
1112 388 863
1113 397 863
1114 401 859
1115 401 852
1116 401 841
1117 411 832
1118 415 832
1119 415 841
1120 419 845
1121 426 845
1122 437 845
1123 462 851
1124 462 843
1125 458 839
1126 451 839
1127 440 839
1128 432 829
1129 432 825
1130 440 825
1131 444 821
1132 444 813
1133 444 803
1134 461 753
1135 452 753
1136 448 757
1137 448 764
1138 448 774
1139 438 783
1140 434 783
1141 434 775
1142 430 771
1143 423 771
1144 412 771
1145 387 765
1146 387 773
1147 391 777
1148 398 777
1149 409 777
1150 417 787
1151 417 791
1152 409 791
1153 405 795
1154 405 802
1155 405 813
1156 385 846
1157 381 846
1158 381 838
1159 377 834
1160 369 834
1161 359 834
1162 350 824
1163 350 820
1164 358 820
1165 363 816
1166 363 808
1167 363 798
1168 369 773
1169 360 773
1170 356 777
1171 356 784
1172 356 794
1173 346 803
1174 342 803
1175 342 795
1176 338 791
1177 331 791
1178 320 791
1179 262 760
1180 262 756
1181 270 756
1182 275 752
1183 275 745
1184 275 734
1185 285 726
1186 289 726
1187 289 734
1188 293 738
1189 300 738
1190 311 738
1191 336 744
1192 336 736
1193 332 732
1194 325 732
1195 314 732
1196 305 722
1197 305 718
1198 314 718
1199 318 714
1200 318 706
1201 318 696
1202 338 662
1203 342 662
1204 342 671
1205 346 675
1206 354 675
1207 364 675
1208 373 685
1209 373 689
1210 365 689
1211 360 693
1212 360 700
1213 360 711
1214 354 736
1215 362 736
1216 367 732
1217 367 725
1218 367 715
1219 377 706
1220 381 706
1221 381 714
1222 385 718
1223 392 718
1224 402 718
1225 453 735
1226 453 726
1227 449 722
1228 441 722
1229 431 722
1230 422 712
1231 422 708
1232 430 708
1233 434 704
1234 434 697
1235 434 686
1236 441 661
1237 432 661
1238 428 665
1239 428 672
1240 428 683
1241 418 692
1242 414 692
1243 414 683
1244 410 679
1245 403 679
1246 392 679
1247 359 659
1248 359 655
1249 367 655
1250 371 651
1251 371 643
1252 371 633
1253 381 624
1254 385 624
1255 385 632
1256 389 637
1257 397 637
1258 407 637
1259 433 643
1260 433 635
1261 429 630
1262 421 630
1263 411 630
1264 402 620
1265 402 616
1266 410 616
1267 415 612
1268 415 605
1269 415 595
1270 441 520
1271 433 520
1272 429 524
1273 429 531
1274 429 542
1275 419 550
1276 415 550
1277 415 542
1278 411 538
1279 403 538
1280 393 538
1281 367 532
1282 367 540
1283 371 544
1284 379 544
1285 389 544
1286 398 554
1287 398 558
1288 390 558
1289 385 562
1290 385 570
1291 385 580
1292 365 614
1293 361 614
1294 361 605
1295 357 601
1296 350 601
1297 339 601
1298 331 591
1299 331 587
1300 339 587
1301 343 583
1302 343 576
1303 343 565
1304 349 540
1305 341 540
1306 337 544
1307 337 551
1308 337 561
1309 327 570
1310 323 570
1311 323 562
1312 319 558
1313 311 558
1314 301 558
1315 251 541
1316 251 550
1317 255 554
1318 262 554
1319 273 554
1320 282 564
1321 282 568
1322 273 568
1323 269 572
1324 269 579
1325 269 590
1326 263 615
1327 271 615
1328 275 611
1329 275 604
1330 275 593
1331 285 584
1332 289 584
1333 289 593
1334 293 597
1335 301 597
1336 311 597
1337 345 617
1338 345 621
1339 336 621
1340 332 625
1341 332 633
1342 332 643
1343 322 652
1344 318 652
1345 318 644
1346 314 639
1347 307 639
1348 296 639
1349 271 633
1350 271 641
1351 275 646
1352 282 646
1353 293 646
1354 301 656
1355 301 660
1356 293 660
1357 289 664
1358 289 671
1359 289 682
1360 259 740
1361 255 740
1362 255 731
1363 251 727
1364 243 727
1365 233 727
1366 224 717
1367 224 713
1368 232 713
1369 236 709
1370 236 702
1371 236 691
1372 243 666
1373 234 666
1374 230 670
1375 230 677
1376 230 688
1377 220 697
1378 216 697
1379 216 688
1380 212 684
1381 205 684
1382 194 684
1383 161 664
1384 161 660
1385 169 660
1386 173 656
1387 173 648
1388 173 638
1389 183 629
1390 187 629
1391 187 637
1392 191 642
1393 199 642
1394 209 642
1395 235 648
1396 235 640
1397 231 635
1398 223 635
1399 213 635
1400 204 625
1401 204 621
1402 212 621
1403 216 617
1404 216 610
1405 216 599
1406 233 549
1407 225 549
1408 220 553
1409 220 561
1410 220 571
1411 210 580
1412 206 580
1413 206 572
1414 202 567
1415 195 567
1416 184 567
1417 159 561
1418 159 570
1419 163 574
1420 170 574
1421 181 574
1422 190 584
1423 190 588
1424 181 588
1425 177 592
1426 177 599
1427 177 610
1428 157 643
1429 153 643
1430 153 635
1431 149 631
1432 142 631
1433 131 631
1434 122 621
1435 122 617
1436 131 617
1437 135 613
1438 135 605
1439 135 595
1440 141 569
1441 133 569
1442 128 573
1443 128 581
1444 128 591
1445 119 600
1446 115 600
1447 115 592
1448 111 587
1449 103 587
1450 93 587
1451 6 542
1452 6 538
EOF
