Java Code/src/gui/resources/problems/tsp/mnpeano_mod_o8_1452.opt.tour
NAME : mnpeano_mod.13962.tour
COMMENT : Length = 13962
COMMENT : Found by LKH [Keld Helsgaun] Mon Feb 15 01:00:55 2016
TYPE : TOUR
DIMENSION : 1452
TOUR_SECTION
1
2
3
7
8
9
10
15
14
13
12
11
34
35
36
37
38
33
32
31
30
28
29
39
40
41
42
43
44
1417
1420
1419
1418
1440
1441
1442
1443
1448
1449
1450
1447
1446
1445
1444
1439
1438
1437
1436
1435
1434
1433
1432
1431
1430
1429
1428
1384
1383
1385
1386
1387
1388
1389
1427
1426
1425
1424
1423
1422
1421
1416
1415
1414
1413
1412
1411
1410
1409
1408
1407
1406
1315
1316
1317
1318
1319
1322
1323
1324
1325
1330
1329
1328
1327
1326
1405
1404
1403
1402
1401
1400
1390
1391
1392
1393
1394
1399
1398
1397
1396
1395
1372
1373
1374
1375
1380
1381
1382
1379
1378
1377
1376
1371
1370
1369
1368
1367
1366
1365
1364
1363
1362
1361
1360
1180
1179
1181
1182
1183
1184
1185
1186
1187
1188
1189
1190
1178
1177
1176
1175
1174
1173
1172
1171
1170
1169
1168
1167
1166
1165
1164
1163
1162
1161
1160
1159
1158
1157
1156
1116
1115
1114
1113
1112
1111
1110
1109
1108
1107
1106
1105
1095
1094
1093
1092
1089
1088
1090
1091
1096
1097
1098
1099
1104
1103
1102
1101
1100
1123
1124
1125
1126
1130
1131
1132
1133
1129
1128
1127
1122
1121
1120
1119
1118
1117
1155
1154
1153
1152
1151
1150
1149
1148
1147
1146
1145
1144
1143
1142
1141
1140
1139
1138
1137
1136
1135
1134
1225
1226
1227
1228
1229
1224
1223
1222
1221
1220
1219
1209
1208
1246
1245
1244
1243
1242
1241
1231
1230
1232
1233
1234
1235
1240
1239
1238
1237
1236
1259
1260
1261
1262
1266
1267
1268
1269
1265
1264
1263
1258
1257
1256
1255
1254
1253
1252
1251
1250
1249
1248
1247
1203
1202
1204
1205
1206
1207
1210
1211
1212
1213
1218
1217
1216
1215
1214
1191
1192
1193
1194
1195
1196
1197
1198
1199
1200
1201
1359
1358
1357
1356
1355
1354
1353
1352
1351
1350
1349
1348
1347
1346
1345
1344
1343
1342
1341
1340
1339
1338
1337
1293
1292
1294
1295
1296
1297
1336
1335
1334
1333
1332
1331
1321
1320
1314
1313
1312
1311
1310
1309
1299
1298
1300
1301
1302
1303
1308
1307
1306
1305
1304
1281
1282
1283
1284
1288
1289
1290
1291
1287
1286
1285
1280
1279
1278
1277
1276
1275
1274
1273
1272
1271
1270
907
908
909
910
911
912
913
914
915
916
917
922
923
924
928
927
926
925
921
920
919
918
941
942
943
944
945
940
939
938
937
936
946
947
948
949
950
951
957
958
968
969
970
971
972
973
935
934
933
932
931
929
930
974
975
976
977
978
979
980
981
982
983
984
985
990
991
992
996
995
994
993
989
988
987
986
963
964
965
966
967
962
961
960
959
956
955
954
953
952
1043
1044
1045
1046
1047
1048
1042
1041
1040
1039
1038
1037
1027
1026
1064
1063
1062
1061
1060
1059
1049
1050
1051
1052
1053
1058
1057
1056
1055
1054
1077
1078
1079
1080
1085
1086
1087
1084
1083
1082
1081
1076
1075
1074
1073
1072
1071
1070
1069
1068
1067
1066
1065
1021
1020
1022
1023
1024
1025
1028
1029
1030
1031
1036
1035
1034
1033
1032
1009
1010
1011
1012
1019
1018
1017
1016
1015
1014
1013
1008
1007
1006
1005
1004
1003
1002
1001
1000
999
998
997
817
816
818
819
820
821
822
823
824
825
826
827
832
833
834
838
837
836
835
831
830
829
828
851
852
853
854
855
850
849
848
847
846
856
857
858
859
860
861
867
868
878
879
880
881
882
883
845
844
843
842
841
839
840
884
885
886
887
888
889
890
891
892
893
894
895
900
901
902
903
906
905
904
899
898
897
896
873
874
875
876
877
872
871
870
869
866
865
864
863
862
771
772
773
774
775
776
777
778
779
780
781
786
787
788
789
792
791
790
785
784
783
782
805
806
807
808
813
814
815
812
811
810
809
804
803
802
801
800
799
798
797
796
795
794
793
753
752
751
750
749
748
747
746
745
744
743
742
732
731
730
726
725
727
728
729
733
734
735
736
741
740
739
738
737
760
761
762
763
764
759
758
757
756
754
755
765
766
767
768
769
770
691
694
693
692
714
715
716
717
721
722
723
724
720
719
718
713
712
711
710
709
708
707
706
705
704
703
702
662
661
660
659
658
657
656
655
654
653
652
651
641
640
639
642
643
644
645
650
649
648
647
646
669
670
671
672
673
668
667
666
665
663
664
674
675
676
677
678
679
701
700
699
698
697
696
695
690
689
688
687
686
685
684
683
682
681
680
589
590
591
592
593
596
597
598
599
604
603
602
601
600
623
624
625
626
627
622
621
620
619
617
618
628
629
630
631
632
633
475
474
473
472
471
470
460
459
458
636
637
638
635
634
454
453
455
456
457
461
462
463
464
469
468
467
466
465
488
489
491
490
419
422
421
420
442
443
444
445
450
451
452
449
448
447
446
441
440
439
438
437
436
435
434
433
432
431
430
390
389
388
387
386
385
384
383
382
381
380
379
369
368
367
363
362
364
365
366
370
371
372
373
378
377
376
375
374
397
398
399
400
404
405
406
407
403
402
401
396
395
394
393
392
391
429
428
427
426
425
424
423
418
417
416
415
414
413
412
411
410
409
408
499
500
501
502
503
504
498
497
496
495
494
493
492
487
486
485
484
483
482
520
519
518
517
516
515
505
506
507
508
509
514
513
512
511
510
533
534
535
536
543
542
541
540
539
538
537
532
531
530
529
528
527
526
525
524
523
522
521
481
480
479
478
477
476
616
615
614
613
612
611
567
566
568
569
570
571
610
609
608
607
606
605
595
594
588
587
586
585
584
583
573
572
574
575
576
577
582
581
580
579
578
555
556
557
558
562
563
564
565
561
560
559
554
553
552
551
550
549
548
547
546
545
544
181
182
183
184
185
186
187
188
189
190
191
196
197
198
199
202
201
200
195
194
193
192
215
216
217
218
219
214
213
212
211
208
207
206
205
203
204
248
249
250
251
252
253
254
255
256
257
258
259
264
265
266
270
269
268
267
263
262
261
260
237
238
239
240
241
236
235
234
233
232
242
243
244
245
246
247
209
210
220
221
222
223
224
225
231
230
229
228
227
226
317
318
319
320
321
324
325
326
327
332
331
330
329
328
351
352
353
354
359
360
361
358
357
356
355
350
349
348
347
346
345
344
343
342
341
340
339
295
294
296
297
298
299
300
338
337
336
335
334
333
323
322
316
315
314
313
312
311
301
302
303
304
305
310
309
308
307
306
283
284
285
286
290
291
292
293
289
288
287
282
281
280
279
278
277
276
275
274
273
272
271
91
90
92
93
94
95
96
97
98
99
100
101
106
107
108
112
111
110
109
105
104
103
102
125
126
127
128
129
124
123
122
121
119
120
130
131
132
133
134
135
153
152
154
155
156
157
118
117
116
115
113
114
158
159
160
161
162
163
164
165
166
167
168
169
174
175
176
177
180
179
178
173
172
171
170
147
148
149
150
151
146
145
144
143
142
141
140
139
138
137
136
45
46
47
48
49
50
51
52
53
54
55
60
61
62
66
65
64
63
59
58
57
56
79
80
81
82
87
88
89
86
85
84
83
78
77
76
75
74
73
72
71
70
69
68
67
27
26
25
24
23
22
21
20
19
18
17
16
6
5
4
1452
1451
-1
EOF
